p edge 300 972
e 1 2 1
e 1 300 1
e 1 3 1
e 1 299 1
e 1 62 1
e 1 248 1
e 1 229 1
e 1 202 1
e 2 3 1
e 2 4 1
e 2 300 1
e 2 54 1
e 2 83 1
e 3 4 1
e 3 5 1
e 3 16 1
e 3 114 1
e 3 185 1
e 4 5 1
e 4 6 1
e 4 112 1
e 4 53 1
e 4 291 1
e 5 6 1
e 5 7 1
e 5 87 1
e 5 147 1
e 6 7 1
e 6 8 1
e 6 22 1
e 6 19 1
e 6 35 1
e 6 49 1
e 6 235 1
e 7 8 1
e 7 9 1
e 7 163 1
e 7 70 1
e 8 9 1
e 8 10 1
e 8 176 1
e 9 10 1
e 9 11 1
e 9 104 1
e 9 67 1
e 9 31 1
e 9 33 1
e 10 11 1
e 10 12 1
e 10 35 1
e 10 139 1
e 11 12 1
e 11 13 1
e 11 129 1
e 11 281 1
e 11 59 1
e 11 146 1
e 11 264 1
e 11 276 1
e 12 13 1
e 12 14 1
e 12 133 1
e 13 14 1
e 13 15 1
e 13 283 1
e 13 37 1
e 14 15 1
e 14 16 1
e 14 221 1
e 15 16 1
e 15 17 1
e 15 140 1
e 15 182 1
e 16 17 1
e 16 18 1
e 17 18 1
e 17 19 1
e 17 90 1
e 17 288 1
e 17 35 1
e 17 290 1
e 18 19 1
e 18 20 1
e 18 111 1
e 18 172 1
e 18 32 1
e 18 257 1
e 19 20 1
e 19 21 1
e 20 21 1
e 20 22 1
e 20 151 1
e 21 22 1
e 21 23 1
e 21 196 1
e 21 125 1
e 21 223 1
e 22 23 1
e 22 24 1
e 22 219 1
e 22 106 1
e 22 284 1
e 23 24 1
e 23 25 1
e 23 295 1
e 24 25 1
e 24 26 1
e 24 253 1
e 24 102 1
e 24 100 1
e 24 194 1
e 25 26 1
e 25 27 1
e 25 66 1
e 25 97 1
e 25 205 1
e 25 219 1
e 26 27 1
e 26 28 1
e 26 111 1
e 26 130 1
e 27 28 1
e 27 29 1
e 27 246 1
e 28 29 1
e 28 30 1
e 28 143 1
e 29 30 1
e 29 31 1
e 29 221 1
e 29 200 1
e 29 73 1
e 29 87 1
e 29 112 1
e 30 31 1
e 30 32 1
e 30 58 1
e 30 244 1
e 31 32 1
e 31 33 1
e 31 179 1
e 31 202 1
e 31 282 1
e 32 33 1
e 32 34 1
e 32 158 1
e 33 34 1
e 33 35 1
e 33 194 1
e 33 47 1
e 33 277 1
e 33 284 1
e 33 285 1
e 34 35 1
e 34 36 1
e 34 298 1
e 34 202 1
e 35 36 1
e 35 37 1
e 35 118 1
e 35 228 1
e 36 37 1
e 36 38 1
e 37 38 1
e 37 39 1
e 37 212 1
e 37 144 1
e 38 39 1
e 38 40 1
e 38 62 1
e 39 40 1
e 39 41 1
e 39 74 1
e 39 188 1
e 40 41 1
e 40 42 1
e 40 48 1
e 40 70 1
e 41 42 1
e 41 43 1
e 41 152 1
e 41 299 1
e 42 43 1
e 42 44 1
e 42 192 1
e 43 44 1
e 43 45 1
e 43 83 1
e 43 117 1
e 43 217 1
e 44 45 1
e 44 46 1
e 44 73 1
e 44 95 1
e 45 46 1
e 45 47 1
e 45 100 1
e 46 47 1
e 46 48 1
e 46 87 1
e 46 109 1
e 46 181 1
e 46 242 1
e 46 292 1
e 46 297 1
e 47 48 1
e 47 49 1
e 47 253 1
e 47 164 1
e 47 212 1
e 48 49 1
e 48 50 1
e 48 206 1
e 48 70 1
e 48 254 1
e 48 259 1
e 49 50 1
e 49 51 1
e 49 149 1
e 50 51 1
e 50 52 1
e 50 153 1
e 50 102 1
e 50 127 1
e 51 52 1
e 51 53 1
e 51 293 1
e 52 53 1
e 52 54 1
e 53 54 1
e 53 55 1
e 53 57 1
e 53 212 1
e 54 55 1
e 54 56 1
e 54 121 1
e 54 240 1
e 55 56 1
e 55 57 1
e 55 194 1
e 55 137 1
e 55 86 1
e 56 57 1
e 56 58 1
e 56 67 1
e 57 58 1
e 57 59 1
e 58 59 1
e 58 60 1
e 58 119 1
e 58 231 1
e 58 271 1
e 58 278 1
e 59 60 1
e 59 61 1
e 59 173 1
e 59 133 1
e 59 171 1
e 59 182 1
e 60 61 1
e 60 62 1
e 60 134 1
e 60 188 1
e 61 62 1
e 61 63 1
e 61 190 1
e 61 169 1
e 61 180 1
e 62 63 1
e 62 64 1
e 62 89 1
e 63 64 1
e 63 65 1
e 63 190 1
e 63 265 1
e 63 266 1
e 63 268 1
e 64 65 1
e 64 66 1
e 64 297 1
e 64 241 1
e 65 66 1
e 65 67 1
e 65 260 1
e 65 130 1
e 65 227 1
e 66 67 1
e 66 68 1
e 66 196 1
e 66 133 1
e 67 68 1
e 67 69 1
e 67 214 1
e 67 139 1
e 67 289 1
e 68 69 1
e 68 70 1
e 68 190 1
e 69 70 1
e 69 71 1
e 69 111 1
e 69 207 1
e 69 198 1
e 69 251 1
e 70 71 1
e 70 72 1
e 70 133 1
e 70 186 1
e 71 72 1
e 71 73 1
e 71 132 1
e 72 73 1
e 72 74 1
e 72 116 1
e 73 74 1
e 73 75 1
e 74 75 1
e 74 76 1
e 75 76 1
e 75 77 1
e 75 216 1
e 76 77 1
e 76 78 1
e 76 234 1
e 77 78 1
e 77 79 1
e 77 251 1
e 78 79 1
e 78 80 1
e 79 80 1
e 79 81 1
e 79 284 1
e 80 81 1
e 80 82 1
e 80 236 1
e 80 260 1
e 80 234 1
e 81 82 1
e 81 83 1
e 81 131 1
e 82 83 1
e 82 84 1
e 82 89 1
e 82 169 1
e 83 84 1
e 83 85 1
e 83 209 1
e 84 85 1
e 84 86 1
e 84 88 1
e 84 200 1
e 84 294 1
e 85 86 1
e 85 87 1
e 85 206 1
e 85 219 1
e 86 87 1
e 86 88 1
e 86 199 1
e 86 220 1
e 87 88 1
e 87 89 1
e 87 202 1
e 87 260 1
e 88 89 1
e 88 90 1
e 88 218 1
e 88 214 1
e 89 90 1
e 89 91 1
e 90 91 1
e 90 92 1
e 90 139 1
e 90 153 1
e 91 92 1
e 91 93 1
e 91 195 1
e 92 93 1
e 92 94 1
e 93 94 1
e 93 95 1
e 93 111 1
e 93 118 1
e 93 210 1
e 94 95 1
e 94 96 1
e 94 232 1
e 94 147 1
e 95 96 1
e 95 97 1
e 95 200 1
e 96 97 1
e 96 98 1
e 96 196 1
e 97 98 1
e 97 99 1
e 97 123 1
e 98 99 1
e 98 100 1
e 98 184 1
e 98 268 1
e 99 100 1
e 99 101 1
e 99 209 1
e 99 154 1
e 100 101 1
e 100 102 1
e 101 102 1
e 101 103 1
e 102 103 1
e 102 104 1
e 102 233 1
e 103 104 1
e 103 105 1
e 104 105 1
e 104 106 1
e 104 224 1
e 104 121 1
e 104 263 1
e 105 106 1
e 105 107 1
e 106 107 1
e 106 108 1
e 107 108 1
e 107 109 1
e 107 127 1
e 107 171 1
e 108 109 1
e 108 110 1
e 108 264 1
e 109 110 1
e 109 111 1
e 109 184 1
e 110 111 1
e 110 112 1
e 110 245 1
e 110 242 1
e 111 112 1
e 111 113 1
e 111 237 1
e 112 113 1
e 112 114 1
e 113 114 1
e 113 115 1
e 113 252 1
e 114 115 1
e 114 116 1
e 114 244 1
e 115 116 1
e 115 117 1
e 115 288 1
e 115 208 1
e 115 201 1
e 116 117 1
e 116 118 1
e 117 118 1
e 117 119 1
e 117 188 1
e 118 119 1
e 118 120 1
e 118 154 1
e 118 175 1
e 119 120 1
e 119 121 1
e 119 256 1
e 120 121 1
e 120 122 1
e 121 122 1
e 121 123 1
e 121 184 1
e 121 137 1
e 122 123 1
e 122 124 1
e 122 170 1
e 123 124 1
e 123 125 1
e 124 125 1
e 124 126 1
e 124 295 1
e 124 258 1
e 125 126 1
e 125 127 1
e 125 129 1
e 126 127 1
e 126 128 1
e 126 245 1
e 126 151 1
e 126 257 1
e 127 128 1
e 127 129 1
e 128 129 1
e 128 130 1
e 128 287 1
e 129 130 1
e 129 131 1
e 129 191 1
e 130 131 1
e 130 132 1
e 130 232 1
e 131 132 1
e 131 133 1
e 131 229 1
e 131 271 1
e 131 286 1
e 132 133 1
e 132 134 1
e 132 270 1
e 132 138 1
e 133 134 1
e 133 135 1
e 134 135 1
e 134 136 1
e 134 151 1
e 135 136 1
e 135 137 1
e 135 250 1
e 136 137 1
e 136 138 1
e 136 275 1
e 136 172 1
e 137 138 1
e 137 139 1
e 137 190 1
e 137 203 1
e 137 290 1
e 138 139 1
e 138 140 1
e 138 249 1
e 138 229 1
e 139 140 1
e 139 141 1
e 139 288 1
e 140 141 1
e 140 142 1
e 140 171 1
e 140 186 1
e 140 222 1
e 140 291 1
e 141 142 1
e 141 143 1
e 141 186 1
e 141 267 1
e 142 143 1
e 142 144 1
e 142 268 1
e 142 250 1
e 143 144 1
e 143 145 1
e 143 242 1
e 144 145 1
e 144 146 1
e 145 146 1
e 145 147 1
e 145 263 1
e 145 269 1
e 146 147 1
e 146 148 1
e 147 148 1
e 147 149 1
e 148 149 1
e 148 150 1
e 149 150 1
e 149 151 1
e 149 232 1
e 149 279 1
e 150 151 1
e 150 152 1
e 150 225 1
e 150 160 1
e 150 193 1
e 150 261 1
e 151 152 1
e 151 153 1
e 151 172 1
e 152 153 1
e 152 154 1
e 153 154 1
e 153 155 1
e 153 157 1
e 153 263 1
e 154 155 1
e 154 156 1
e 155 156 1
e 155 157 1
e 156 157 1
e 156 158 1
e 156 277 1
e 156 248 1
e 157 158 1
e 157 159 1
e 157 238 1
e 157 270 1
e 158 159 1
e 158 160 1
e 158 208 1
e 159 160 1
e 159 161 1
e 159 201 1
e 159 205 1
e 160 161 1
e 160 162 1
e 160 237 1
e 161 162 1
e 161 163 1
e 161 169 1
e 161 273 1
e 162 163 1
e 162 164 1
e 162 177 1
e 163 164 1
e 163 165 1
e 163 251 1
e 163 299 1
e 164 165 1
e 164 166 1
e 164 259 1
e 164 187 1
e 165 166 1
e 165 167 1
e 165 190 1
e 166 167 1
e 166 168 1
e 167 168 1
e 167 169 1
e 167 181 1
e 167 177 1
e 168 169 1
e 168 170 1
e 168 191 1
e 169 170 1
e 169 171 1
e 169 208 1
e 170 171 1
e 170 172 1
e 170 200 1
e 171 172 1
e 171 173 1
e 171 207 1
e 172 173 1
e 172 174 1
e 172 216 1
e 173 174 1
e 173 175 1
e 173 219 1
e 174 175 1
e 174 176 1
e 174 259 1
e 174 206 1
e 174 214 1
e 175 176 1
e 175 177 1
e 175 226 1
e 175 230 1
e 176 177 1
e 176 178 1
e 176 189 1
e 177 178 1
e 177 179 1
e 177 246 1
e 178 179 1
e 178 180 1
e 178 228 1
e 178 278 1
e 179 180 1
e 179 181 1
e 179 281 1
e 180 181 1
e 180 182 1
e 180 269 1
e 181 182 1
e 181 183 1
e 182 183 1
e 182 184 1
e 182 288 1
e 183 184 1
e 183 185 1
e 183 192 1
e 184 185 1
e 184 186 1
e 185 186 1
e 185 187 1
e 185 255 1
e 186 187 1
e 186 188 1
e 186 280 1
e 187 188 1
e 187 189 1
e 187 246 1
e 187 200 1
e 187 280 1
e 188 189 1
e 188 190 1
e 189 190 1
e 189 191 1
e 189 288 1
e 189 238 1
e 190 191 1
e 190 192 1
e 190 246 1
e 191 192 1
e 191 193 1
e 191 278 1
e 191 204 1
e 191 248 1
e 191 288 1
e 192 193 1
e 192 194 1
e 192 218 1
e 192 292 1
e 192 230 1
e 193 194 1
e 193 195 1
e 193 201 1
e 193 265 1
e 194 195 1
e 194 196 1
e 194 222 1
e 195 196 1
e 195 197 1
e 195 204 1
e 196 197 1
e 196 198 1
e 196 258 1
e 197 198 1
e 197 199 1
e 197 210 1
e 198 199 1
e 198 200 1
e 198 220 1
e 199 200 1
e 199 201 1
e 199 211 1
e 200 201 1
e 200 202 1
e 200 225 1
e 200 293 1
e 201 202 1
e 201 203 1
e 202 203 1
e 202 204 1
e 202 234 1
e 202 281 1
e 203 204 1
e 203 205 1
e 203 288 1
e 204 205 1
e 204 206 1
e 205 206 1
e 205 207 1
e 206 207 1
e 206 208 1
e 206 282 1
e 207 208 1
e 207 209 1
e 207 238 1
e 208 209 1
e 208 210 1
e 209 210 1
e 209 211 1
e 210 211 1
e 210 212 1
e 210 267 1
e 211 212 1
e 211 213 1
e 212 213 1
e 212 214 1
e 212 293 1
e 212 237 1
e 213 214 1
e 213 215 1
e 214 215 1
e 214 216 1
e 214 229 1
e 215 216 1
e 215 217 1
e 216 217 1
e 216 218 1
e 216 237 1
e 217 218 1
e 217 219 1
e 217 227 1
e 218 219 1
e 218 220 1
e 219 220 1
e 219 221 1
e 220 221 1
e 220 222 1
e 220 297 1
e 221 222 1
e 221 223 1
e 221 242 1
e 222 223 1
e 222 224 1
e 223 224 1
e 223 225 1
e 223 226 1
e 224 225 1
e 224 226 1
e 224 251 1
e 224 281 1
e 225 226 1
e 225 227 1
e 225 274 1
e 226 227 1
e 226 228 1
e 227 228 1
e 227 229 1
e 227 296 1
e 228 229 1
e 228 230 1
e 228 278 1
e 229 230 1
e 229 231 1
e 230 231 1
e 230 232 1
e 231 232 1
e 231 233 1
e 232 233 1
e 232 234 1
e 233 234 1
e 233 235 1
e 233 259 1
e 234 235 1
e 234 236 1
e 235 236 1
e 235 237 1
e 236 237 1
e 236 238 1
e 236 246 1
e 237 238 1
e 237 239 1
e 238 239 1
e 238 240 1
e 239 240 1
e 239 241 1
e 239 288 1
e 240 241 1
e 240 242 1
e 241 242 1
e 241 243 1
e 242 243 1
e 242 244 1
e 243 244 1
e 243 245 1
e 243 290 1
e 244 245 1
e 244 246 1
e 245 246 1
e 245 247 1
e 245 298 1
e 246 247 1
e 246 248 1
e 247 248 1
e 247 249 1
e 248 249 1
e 248 250 1
e 249 250 1
e 249 251 1
e 249 274 1
e 250 251 1
e 250 252 1
e 251 252 1
e 251 253 1
e 252 253 1
e 252 254 1
e 253 254 1
e 253 255 1
e 253 293 1
e 253 264 1
e 254 255 1
e 254 256 1
e 255 256 1
e 255 257 1
e 255 282 1
e 256 257 1
e 256 258 1
e 256 290 1
e 257 258 1
e 257 259 1
e 257 295 1
e 258 259 1
e 258 260 1
e 259 260 1
e 259 261 1
e 260 261 1
e 260 262 1
e 261 262 1
e 261 263 1
e 261 288 1
e 262 263 1
e 262 264 1
e 262 293 1
e 263 264 1
e 263 265 1
e 263 294 1
e 264 265 1
e 264 266 1
e 265 266 1
e 265 267 1
e 266 267 1
e 266 268 1
e 266 272 1
e 267 268 1
e 267 269 1
e 268 269 1
e 268 270 1
e 268 276 1
e 269 270 1
e 269 271 1
e 269 298 1
e 270 271 1
e 270 272 1
e 270 285 1
e 271 272 1
e 271 273 1
e 272 273 1
e 272 274 1
e 273 274 1
e 273 275 1
e 274 275 1
e 274 276 1
e 275 276 1
e 275 277 1
e 276 277 1
e 276 278 1
e 277 278 1
e 277 279 1
e 278 279 1
e 278 280 1
e 279 280 1
e 279 281 1
e 280 281 1
e 280 282 1
e 281 282 1
e 281 283 1
e 282 283 1
e 282 284 1
e 283 284 1
e 283 285 1
e 283 286 1
e 284 285 1
e 284 286 1
e 285 286 1
e 285 287 1
e 286 287 1
e 286 288 1
e 287 288 1
e 287 289 1
e 288 289 1
e 288 290 1
e 289 290 1
e 289 291 1
e 289 296 1
e 290 291 1
e 290 292 1
e 291 292 1
e 291 293 1
e 292 293 1
e 292 294 1
e 293 294 1
e 293 295 1
e 294 295 1
e 294 296 1
e 295 296 1
e 295 297 1
e 296 297 1
e 296 298 1
e 297 298 1
e 297 299 1
e 298 299 1
e 298 300 1
e 299 300 1